networks/zoo_55_421/zoo_55_421-lower.txt
Number of groups: 27
Flow 3: {1 14 0} {14 17 1} {17 45 2} 
Flow 19: {2 14 0} {14 21 1} {21 24 2} {24 52 3} 
Flow 30: {3 21 0} {21 20 1} {20 18 2} {18 46 3} 
Flow 44: {4 23 0} {23 22 1} {22 50 2} 
Flow 48: {5 15 0} {15 11 1} {11 39 2} 
Flow 68: {6 26 0} {26 54 1} 
Flow 69: {7 14 3} {14 42 4} 
Flow 81: {8 21 0} {21 25 1} {25 53 2} 
Flow 83: {9 12 0} {12 25 1} {25 21 2} {21 8 3} {8 36 4} 
Flow 101: {12 40 0} 
Flow 102: {25 13 0} {13 41 1} 
Flow 143: {13 25 0} {25 15 1} {15 16 2} {16 44 3} 
Flow 153: {14 2 0} {2 30 1} 
Flow 155: {23 4 0} {4 32 1} 
Flow 198: {16 17 0} {17 14 1} {14 26 2} {26 6 3} {6 34 4} 
Flow 201: {15 25 0} {25 12 1} {12 9 2} {9 37 3} 
Flow 218: {17 16 0} {16 15 1} {15 5 2} {5 33 3} 
Flow 245: {18 20 0} {20 48 1} 
Flow 252: {19 16 2} {16 21 3} {21 49 4} 
Flow 272: {20 21 0} {21 27 1} {27 55 2} 
Flow 291: {21 16 0} {16 19 1} {19 47 2} 
Flow 303: {22 23 0} {23 10 1} {10 38 2} 
Flow 319: {10 11 0} {11 15 1} {15 21 2} {21 3 3} {3 31 4} 
Flow 347: {24 21 0} {21 14 1} {14 7 2} {7 35 3} 
Flow 390: {26 14 0} {14 1 1} {1 29 2} 
Flow 412: {27 21 0} {21 15 1} {15 43 2} 
Flow 418: {11 10 0} {10 23 1} {23 51 2} 
Time taken running everything: 1 seconds
