networks/zoo_55_421/zoo_55_421-lower.sol
<?xml version = "1.0" encoding="UTF-8" standalone="yes"?>
<CPLEXSolution version="1.2">
 <header
   problemName="networks/zoo_55_421/zoo_55_421-lower.lp"
   solutionName="incumbent"
   solutionIndex="-1"
   objectiveValue="27"
   solutionTypeValue="3"
   solutionTypeString="primal"
   solutionStatusValue="101"
   solutionStatusString="integer optimal solution"
   solutionMethodString="mip"
   primalFeasible="1"
   dualFeasible="1"
   MIPNodes="0"
   MIPIterations="0"
   writeLevel="3"/>
 <quality
   epInt="1.0000000000000001e-05"
   epRHS="9.9999999999999995e-07"
   maxIntInfeas="0"
   maxPrimalInfeas="0"
   maxX="1"
   maxSlack="1"/>
 <variables>
  <variable name="Y(1,11)" index="10" value="1"/>
  <variable name="Y(2,14)" index="67" value="1"/>
  <variable name="Y(3,17)" index="124" value="1"/>
  <variable name="Y(4,20)" index="181" value="1"/>
  <variable name="Y(5,21)" index="236" value="1"/>
  <variable name="Y(6,24)" index="293" value="1"/>
  <variable name="Y(7,6)" index="329" value="1"/>
  <variable name="Y(8,8)" index="385" value="1"/>
  <variable name="Y(9,10)" index="441" value="1"/>
  <variable name="Y(12,15)" index="608" value="1"/>
  <variable name="Y(13,16)" index="663" value="1"/>
  <variable name="Y(17,22)" index="885" value="1"/>
  <variable name="Y(18,23)" index="940" value="1"/>
  <variable name="Y(20,25)" index="1050" value="1"/>
  <variable name="Y(21,26)" index="1105" value="1"/>
  <variable name="Y(30,18)" index="1583" value="1"/>
  <variable name="Y(97,5)" index="5188" value="1"/>
  <variable name="Y(101,12)" index="5411" value="1"/>
  <variable name="Y(102,13)" index="5466" value="1"/>
  <variable name="Y(152,1)" index="8154" value="1"/>
  <variable name="Y(153,2)" index="8209" value="1"/>
  <variable name="Y(154,3)" index="8264" value="1"/>
  <variable name="Y(155,4)" index="8319" value="1"/>
  <variable name="Y(158,7)" index="8484" value="1"/>
  <variable name="Y(160,9)" index="8594" value="1"/>
  <variable name="Y(169,19)" index="9090" value="1"/>
  <variable name="Y(177,27)" index="9530" value="1"/>
  <variable name="X(1,14,1)" index="22734" value="1"/>
  <variable name="X(1,29,152)" index="23306" value="1"/>
  <variable name="X(2,14,7)" index="23582" value="1"/>
  <variable name="X(2,30,153)" index="24149" value="1"/>
  <variable name="X(3,21,22)" index="24439" value="1"/>
  <variable name="X(3,31,154)" index="24992" value="1"/>
  <variable name="X(4,23,38)" index="25297" value="1"/>
  <variable name="X(4,32,155)" index="25835" value="1"/>
  <variable name="X(5,15,48)" index="26149" value="1"/>
  <variable name="X(5,33,97)" index="26619" value="1"/>
  <variable name="X(6,26,55)" index="26998" value="1"/>
  <variable name="X(6,34,7)" index="27371" value="1"/>
  <variable name="X(7,14,69)" index="27854" value="1"/>
  <variable name="X(7,35,158)" index="28364" value="1"/>
  <variable name="X(8,21,72)" index="28699" value="1"/>
  <variable name="X(8,36,8)" index="29056" value="1"/>
  <variable name="X(9,12,82)" index="29551" value="1"/>
  <variable name="X(9,37,160)" index="30050" value="1"/>
  <variable name="X(10,11,38)" index="30349" value="1"/>
  <variable name="X(10,23,17)" index="30749" value="1"/>
  <variable name="X(10,38,9)" index="31162" value="1"/>
  <variable name="X(11,10,9)" index="31583" value="1"/>
  <variable name="X(11,15,39)" index="32034" value="1"/>
  <variable name="X(11,39,1)" index="32417" value="1"/>
  <variable name="X(12,9,160)" index="32997" value="1"/>
  <variable name="X(12,25,82)" index="33340" value="1"/>
  <variable name="X(12,40,101)" index="33780" value="1"/>
  <variable name="X(13,25,137)" index="34237" value="1"/>
  <variable name="X(13,41,102)" index="34623" value="1"/>
  <variable name="X(14,1,152)" index="35094" value="1"/>
  <variable name="X(14,2,153)" index="35516" value="1"/>
  <variable name="X(14,7,158)" index="35942" value="1"/>
  <variable name="X(14,17,3)" index="36208" value="1"/>
  <variable name="X(14,21,1)" index="36627" value="1"/>
  <variable name="X(14,26,7)" index="37054" value="1"/>
  <variable name="X(14,42,2)" index="37470" value="1"/>
  <variable name="X(15,5,97)" index="37986" value="1"/>
  <variable name="X(15,11,1)" index="38311" value="1"/>
  <variable name="X(15,16,40)" index="38771" value="1"/>
  <variable name="X(15,21,39)" index="39191" value="1"/>
  <variable name="X(15,25,47)" index="39620" value="1"/>
  <variable name="X(15,43,12)" index="40006" value="1"/>
  <variable name="X(16,15,196)" index="40611" value="1"/>
  <variable name="X(16,17,41)" index="40877" value="1"/>
  <variable name="X(16,19,169)" index="41426" value="1"/>
  <variable name="X(16,21,195)" index="41873" value="1"/>
  <variable name="X(16,44,13)" index="42112" value="1"/>
  <variable name="X(17,14,194)" index="42714" value="1"/>
  <variable name="X(17,16,13)" index="42954" value="1"/>
  <variable name="X(17,45,3)" index="43365" value="1"/>
  <variable name="X(18,20,236)" index="44019" value="1"/>
  <variable name="X(18,46,30)" index="44234" value="1"/>
  <variable name="X(19,16,252)" index="44877" value="1"/>
  <variable name="X(19,47,169)" index="45215" value="1"/>
  <variable name="X(20,18,30)" index="45497" value="1"/>
  <variable name="X(20,21,236)" index="46124" value="1"/>
  <variable name="X(20,48,4)" index="46313" value="1"/>
  <variable name="X(21,3,154)" index="46884" value="1"/>
  <variable name="X(21,8,8)" index="47159" value="1"/>
  <variable name="X(21,14,22)" index="47594" value="1"/>
  <variable name="X(21,15,1)" index="47994" value="1"/>
  <variable name="X(21,16,28)" index="48442" value="1"/>
  <variable name="X(21,20,4)" index="48839" value="1"/>
  <variable name="X(21,24,6)" index="49262" value="1"/>
  <variable name="X(21,25,20)" index="49697" value="1"/>
  <variable name="X(21,27,177)" index="50275" value="1"/>
  <variable name="X(21,49,5)" index="50524" value="1"/>
  <variable name="X(22,23,299)" index="51239" value="1"/>
  <variable name="X(22,50,17)" index="51378" value="1"/>
  <variable name="X(23,4,155)" index="51937" value="1"/>
  <variable name="X(23,10,38)" index="52241" value="1"/>
  <variable name="X(23,22,17)" index="52641" value="1"/>
  <variable name="X(23,51,18)" index="53063" value="1"/>
  <variable name="X(24,21,342)" index="53808" value="1"/>
  <variable name="X(24,52,6)" index="53893" value="1"/>
  <variable name="X(25,12,101)" index="54409" value="1"/>
  <variable name="X(25,13,102)" index="54831" value="1"/>
  <variable name="X(25,15,84)" index="55234" value="1"/>
  <variable name="X(25,21,82)" index="55653" value="1"/>
  <variable name="X(25,53,20)" index="56012" value="1"/>
  <variable name="X(26,6,7)" index="56420" value="1"/>
  <variable name="X(26,14,55)" index="56889" value="1"/>
  <variable name="X(26,54,21)" index="57276" value="1"/>
  <variable name="X(27,21,409)" index="58085" value="1"/>
  <variable name="X(27,55,177)" index="58274" value="1"/>
 </variables>
</CPLEXSolution>
